generated by phonopy
   1.0
     8.8169403075999995    0.0000000000000000    0.0000000000000000
     0.0000000000000000    8.8169403075999995    0.0000000000000000
     0.0000000000000000    0.0000000000000000    8.8169403075999995
La C
  16   24
Direct
  0.3022499870000000  0.3022499870000000  0.3022499870000000
  0.1977500000000000  0.6977499860000000  0.8022500140000000
  0.6977499860000000  0.8022500140000000  0.1977500000000000
  0.8022500140000000  0.1977500000000000  0.6977499860000000
  0.5522500140000000  0.5522500140000000  0.5522500140000000
  0.9477499320000000  0.4477500130000000  0.0522500270000000
  0.0522500270000000  0.9477499320000000  0.4477500130000000
  0.4477500130000000  0.0522500270000000  0.9477499320000000
  0.8022500140000000  0.8022500140000000  0.8022500140000000
  0.6977499860000000  0.1977500000000000  0.3022499870000000
  0.1977500000000000  0.3022499870000000  0.6977499860000000
  0.3022499870000000  0.6977499860000000  0.1977500000000000
  0.0522500270000000  0.0522500270000000  0.0522500270000000
  0.4477500130000000  0.9477499320000000  0.5522500140000000
  0.5522500140000000  0.4477500130000000  0.9477499320000000
  0.9477499320000000  0.5522500140000000  0.4477500130000000
  0.4504300160000000  0.0000000000000000  0.2500000000000000
  0.0495699940000000  0.0000000000000000  0.7500000000000000
  0.5495699840000000  0.5000000000000000  0.2500000000000000
  0.9504300160000000  0.5000000000000000  0.7500000000000000
  0.2500000000000000  0.4504300160000000  0.0000000000000000
  0.7500000000000000  0.0495699940000000  0.0000000000000000
  0.2500000000000000  0.5495699840000000  0.5000000000000000
  0.7500000000000000  0.9504300160000000  0.5000000000000000
  0.0000000000000000  0.2500000000000000  0.4504300160000000
  0.0000000000000000  0.7500000000000000  0.0495699940000000
  0.5000000000000000  0.2500000000000000  0.5495699840000000
  0.5000000000000000  0.7500000000000000  0.9504300160000000
  0.2500000000000000  0.7004300160000000  0.5000000000000000
  0.2500000000000000  0.2995699840000000  0.0000000000000000
  0.7500000000000000  0.7995699840000000  0.5000000000000000
  0.7500000000000000  0.2004300300000000  0.0000000000000000
  0.7004300160000000  0.5000000000000000  0.2500000000000000
  0.2995699840000000  0.0000000000000000  0.2500000000000000
  0.7995699840000000  0.5000000000000000  0.7500000000000000
  0.2004300300000000  0.0000000000000000  0.7500000000000000
  0.5000000000000000  0.2500000000000000  0.7004300160000000
  0.0000000000000000  0.2500000000000000  0.2995699840000000
  0.5000000000000000  0.7500000000000000  0.7995699840000000
  0.0000000000000000  0.7500000000000000  0.2004300300000000
